K=5;
N=7;
P=[31 37 39 31 39];
R=[1 18 41 35 27];
A=[4 2 6 4 5];
C=[11 29 9 17 11];
M=[
	[0 20 39 26 5 36 14]
	[20 0 20 11 18 25 24]
	[39 20 0 37 12 36 39]
	[26 11 37 0 20 4 32]
	[5 18 12 20 0 27 36]
	[36 25 36 4 27 0 41]
	[14 24 39 32 36 41 0]
];